(set-logic QF_SLIA)
(set-option :produce-models true)
(declare-const X String)
; /\(\?[gimxs]{1,5}\)/
(assert (str.in_re X (re.++ (str.to_re "/(?") ((_ re.loop 1 5) (re.union (str.to_re "g") (str.to_re "i") (str.to_re "m") (str.to_re "x") (str.to_re "s"))) (str.to_re ")/\u{0a}"))))
; replace(MobileNo,' ',''),'^(\+44|0044|0)(7)[4-9][0-9]{8}$'
(assert (not (str.in_re X (re.++ (str.to_re "replaceMobileNo,' ','','") (re.union (str.to_re "+44") (str.to_re "0044") (str.to_re "0")) (str.to_re "7") (re.range "4" "9") ((_ re.loop 8 8) (re.range "0" "9")) (str.to_re "'\u{0a}")))))
; /\u{2e}f4a([\?\u{5c}\u{2f}]|$)/smiU
(assert (not (str.in_re X (re.++ (str.to_re "/.f4a") (re.union (str.to_re "?") (str.to_re "\u{5c}") (str.to_re "/")) (str.to_re "/smiU\u{0a}")))))
; Host\x3A\s+Eyewww\x2Eccnnlc\x2EcomHost\u{3a}Host\u{3a}
(assert (not (str.in_re X (re.++ (str.to_re "Host:") (re.+ (re.union (str.to_re " ") (str.to_re "\u{09}") (str.to_re "\u{0a}") (str.to_re "\u{0c}") (str.to_re "\u{0d}"))) (str.to_re "Eyewww.ccnnlc.com\u{13}Host:Host:\u{0a}")))))
; [\s0-9a-zA-Z\;\"\,\<\>\\?\+\=\)\(\\*\&\%\\$\#\.]*
(assert (str.in_re X (re.++ (re.* (re.union (re.range "0" "9") (re.range "a" "z") (re.range "A" "Z") (str.to_re ";") (str.to_re "\u{22}") (str.to_re ",") (str.to_re "<") (str.to_re ">") (str.to_re "\u{5c}") (str.to_re "?") (str.to_re "+") (str.to_re "=") (str.to_re ")") (str.to_re "(") (str.to_re "*") (str.to_re "&") (str.to_re "%") (str.to_re "$") (str.to_re "#") (str.to_re ".") (str.to_re " ") (str.to_re "\u{09}") (str.to_re "\u{0a}") (str.to_re "\u{0c}") (str.to_re "\u{0d}"))) (str.to_re "\u{0a}"))))
(assert (> (str.len X) 10))
(check-sat)
